
Gurobi 12.0.3 (win64) logging started Sun Nov  9 23:31:21 2025

Set parameter LogFile to value "Results\10_percent\budget_200000\original\gurobi.log"
Gurobi Optimizer version 12.0.3 build v12.0.3rc0 (win64 - Windows 11+.0 (26200.2))

CPU model: Intel(R) Core(TM) Ultra 7 265K, instruction set [SSE2|AVX|AVX2]
Thread count: 20 physical cores, 20 logical processors, using up to 20 threads

Non-default parameters:
TimeLimit  86400

Optimize a model with 2726 rows, 23143 columns and 143242 nonzeros
Model fingerprint: 0xa225f99a
Variable types: 0 continuous, 23143 integer (23143 binary)
Coefficient statistics:
  Matrix range     [1e+00, 2e+03]
  Objective range  [1e+00, 8e+02]
  Bounds range     [1e+00, 1e+00]
  RHS range        [1e+00, 2e+05]
Found heuristic solution: objective -0.0000000
Presolve removed 1005 rows and 7596 columns
Presolve time: 0.34s
Presolved: 1721 rows, 15547 columns, 82254 nonzeros
Found heuristic solution: objective 111332.00000
Variable types: 0 continuous, 15547 integer (15537 binary)
Found heuristic solution: objective 159760.00000

Root relaxation: objective 2.417770e+05, 238 iterations, 0.01 seconds (0.01 work units)

    Nodes    |    Current Node    |     Objective Bounds      |     Work
 Expl Unexpl |  Obj  Depth IntInf | Incumbent    BestBd   Gap | It/Node Time

*    0     0               0    241777.00000 241777.000  0.00%     -    0s

Explored 1 nodes (238 simplex iterations) in 0.40 seconds (0.63 work units)
Thread count was 20 (of 20 available processors)

Solution count 4: 241777 159760 111332 -0 

Optimal solution found (tolerance 1.00e-04)
Best objective 2.417770000000e+05, best bound 2.417770000000e+05, gap 0.0000%
